letting n =  10
letting blocks =  [[1, 2], [1, 4], [1, 6], [1, 8], [1, 9], [1, 10], [2, 1], [2, 2], [2, 6], [3, 1], [3, 2], [3, 3], [3, 9], [4, 1], [4, 5], [4, 7], [4, 8], [4, 10], [5, 5], [5, 7], [5, 9], [7, 2], [7, 3], [7, 6], [7, 9], [8, 1], [8, 5], [8, 9], [9, 2], [10, 10]]
